30
2 1 5
3 2 4
4 0 5
6 0 2
6 2 3
6 3 2
6 4 1
7 1 5
7 2 2
7 4 1
8 2 5
8 3 5
9 0 2
9 1 2
9 2 2
9 7 2
9 8 5
10 1 1
10 4 4
10 5 4
10 9 3
11 1 2
11 6 5
11 7 2
11 8 5
12 4 2
12 7 2
13 1 1
13 2 5
13 4 2
13 7 5
13 8 4
13 9 5
13 10 2
13 12 3
14 1 5
14 3 5
14 5 1
14 6 1
14 7 1
14 9 2
14 10 2
14 11 2
14 13 4
15 0 4
15 1 4
15 2 4
15 4 1
15 6 2
15 9 5
15 10 3
15 12 1
16 1 4
16 2 5
16 3 3
16 6 5
16 8 3
16 9 4
16 10 1
16 11 1
16 12 3
16 14 1
17 4 2
17 5 4
17 7 5
17 8 1
17 9 4
17 10 3
17 11 2
17 13 4
17 15 1
18 1 2
18 3 5
18 4 1
18 5 2
18 8 1
18 9 4
18 11 1
18 13 2
18 15 1
18 16 4
19 1 1
19 2 3
19 5 2
19 6 2
19 13 3
19 14 3
19 15 3
19 16 3
20 2 1
20 7 3
20 9 1
20 11 1
20 16 1
20 18 4
20 19 2
21 0 3
21 1 2
21 5 4
21 8 1
21 9 3
21 12 3
21 13 4
21 14 1
21 18 1
22 1 5
22 2 3
22 6 3
22 7 1
22 8 1
22 9 4
22 15 3
22 18 5
23 0 5
23 4 1
23 6 1
23 11 5
23 12 5
23 13 3
23 15 4
23 19 3
23 20 3
23 22 3
24 1 4
24 2 1
24 4 4
24 5 5
24 7 4
24 8 2
24 13 1
24 17 5
24 18 4
24 19 5
24 20 2
24 21 2
24 22 1
25 1 1
25 2 3
25 3 1
25 4 1
25 5 5
25 7 5
25 10 4
25 13 1
25 14 5
25 15 2
25 16 4
25 17 2
25 18 5
25 19 5
25 24 3
26 0 1
26 2 3
26 4 1
26 5 4
26 6 5
26 8 2
26 9 5
26 11 4
26 14 2
26 15 1
26 16 4
26 17 4
26 21 4
26 23 1
27 3 2
27 9 4
27 11 1
27 12 2
27 14 3
27 15 1
27 16 3
27 18 4
27 20 1
27 26 5
28 2 1
28 6 2
28 7 5
28 8 3
28 10 2
28 11 2
28 12 5
28 13 1
28 17 1
28 23 4
28 27 2
29 0 1
29 2 5
29 3 2
29 5 5
29 6 4
29 9 5
29 16 1
29 19 1
29 21 5
29 23 2
29 27 5
